; chc-comp19-benchmarks/./lia-lin-arr/chc-lia-lin-arr-0131_000.smt2
(set-logic HORN)

(declare-fun |ULTIMATE.start_L433-1| ( Int Int Int Int Int Int Int Int Int (Array Int Int) (Array Int Int) Int Int Int Int Int Int Int Int Int Int Int Int Int Int Int (Array Int Int) (Array Int Int) Int Int Int Int Int Int Int Int Int Int Int Int Int Int Int Int Bool ) Bool)
(declare-fun |ULTIMATE.start_ULTIMATE.startENTRY| ( Int Int Int Int Int Int Int Int Int (Array Int Int) (Array Int Int) Int Int Int Int Int Int Int Int Int Int Int Int Int Int Int (Array Int Int) (Array Int Int) Int Int Int Int Int Int Int Int Int Int Int Int Int Int Int Int Bool ) Bool)
(declare-fun |ULTIMATE.start_ULTIMATE.startEXIT| ( Int Int Int Int Int Int Int Int Int (Array Int Int) (Array Int Int) Int Int Int Int Int Int Int Int Int Int Int Int Int Int Int (Array Int Int) (Array Int Int) Int Int Int Int Int Int Int Int Int Int Int Int Int Int Int Int Bool ) Bool)
(declare-fun |ULTIMATE.start_L433| ( Int Int Int Int Int Int Int Int Int (Array Int Int) (Array Int Int) Int Int Int Int Int Int Int Int Int Int Int Int Int Int Int (Array Int Int) (Array Int Int) Int Int Int Int Int Int Int Int Int Int Int Int Int Int Int Int Bool ) Bool)
(declare-fun |ULTIMATE.start_L4| ( Int Int Int Int Int Int Int Int Int (Array Int Int) (Array Int Int) Int Int Int Int Int Int Int Int Int Int Int Int Int Int Int (Array Int Int) (Array Int Int) Int Int Int Int Int Int Int Int Int Int Int Int Int Int Int Int Bool ) Bool)
(declare-fun |ULTIMATE.start_L5| ( Int Int Int Int Int Int Int Int Int (Array Int Int) (Array Int Int) Int Int Int Int Int Int Int Int Int Int Int Int Int Int Int (Array Int Int) (Array Int Int) Int Int Int Int Int Int Int Int Int Int Int Int Int Int Int Int Bool ) Bool)
(declare-fun |ULTIMATE.start_L-1| ( Int Int Int Int Int Int Int Int Int (Array Int Int) (Array Int Int) Int Int Int Int Int Int Int Int Int Int Int Int Int Int Int (Array Int Int) (Array Int Int) Int Int Int Int Int Int Int Int Int Int Int Int Int Int Int Int Bool ) Bool)
(declare-fun |ULTIMATE.start_ULTIMATE.startFINAL| ( Int Int Int Int Int Int Int Int Int (Array Int Int) (Array Int Int) Int Int Int Int Int Int Int Int Int Int Int Int Int Int Int (Array Int Int) (Array Int Int) Int Int Int Int Int Int Int Int Int Int Int Int Int Int Int Int Bool ) Bool)
(declare-fun |ULTIMATE.start_L436| ( Int Int Int Int Int Int Int Int Int (Array Int Int) (Array Int Int) Int Int Int Int Int Int Int Int Int Int Int Int Int Int Int (Array Int Int) (Array Int Int) Int Int Int Int Int Int Int Int Int Int Int Int Int Int Int Int Bool ) Bool)

(assert
  (forall ( (A Int) (B Int) (C Int) (D Int) (E Int) (F Int) (G Int) (H Int) (I Int) (J (Array Int Int)) (K (Array Int Int)) (L Int) (M Int) (N Int) (O Int) (P Int) (Q Int) (R Int) (S Int) (T Int) (U Int) (V Int) (W Int) (X Int) (Y Int) (Z Int) (A1 (Array Int Int)) (B1 (Array Int Int)) (C1 Int) (D1 Int) (E1 Int) (F1 Int) (G1 Int) (H1 Int) (I1 Int) (J1 Int) (K1 Int) (L1 Int) (M1 Int) (N1 Int) (O1 Int) (P1 Int) (Q1 Int) (R1 Int) (S1 Bool) (T1 Int) (U1 Int) (V1 Int) (W1 (Array Int Int)) ) 
    (=>
      (and
        (ULTIMATE.start_ULTIMATE.startENTRY
  A
  B
  C
  T1
  E
  F
  G
  H
  I
  J
  K
  L
  M
  N
  O
  P
  Q
  R
  U1
  T
  U
  V
  W
  X
  V1
  Z
  W1
  B1
  C1
  D1
  E1
  F1
  G1
  H1
  I1
  J1
  K1
  L1
  M1
  N1
  O1
  P1
  Q1
  R1
  S1)
        (or S1 (and (= Y 0) (= S 0) (= D 0) (= A1 (store W1 0 0))))
      )
      (ULTIMATE.start_L-1
  A
  B
  C
  D
  E
  F
  G
  H
  I
  J
  K
  L
  M
  N
  O
  P
  Q
  R
  S
  T
  U
  V
  W
  X
  Y
  Z
  A1
  B1
  C1
  D1
  E1
  F1
  G1
  H1
  I1
  J1
  K1
  L1
  M1
  N1
  O1
  P1
  Q1
  R1
  S1)
    )
  )
)
(assert
  (forall ( (A Int) (B Int) (C Int) (D Int) (E Int) (F Int) (G Int) (H Int) (I Int) (J (Array Int Int)) (K (Array Int Int)) (L Int) (M Int) (N Int) (O Int) (P Int) (Q Int) (R Int) (S Int) (T Int) (U Int) (V Int) (W Int) (X Int) (Y Int) (Z Int) (A1 (Array Int Int)) (B1 (Array Int Int)) (C1 Int) (D1 Int) (E1 Int) (F1 Int) (G1 Int) (H1 Int) (I1 Int) (J1 Int) (K1 Int) (L1 Int) (M1 Int) (N1 Int) (O1 Int) (P1 Int) (Q1 Int) (R1 Int) (S1 Bool) (T1 (Array Int Int)) (U1 (Array Int Int)) (V1 Int) (W1 Int) (X1 Int) (Y1 Int) (Z1 Int) (A2 Int) (B2 Int) (C2 Int) (D2 Int) ) 
    (=>
      (and
        (ULTIMATE.start_L-1
  A
  B
  C
  D
  E
  F
  G
  H
  I
  T1
  K
  L
  M
  N
  O
  P
  Q
  R
  S
  T
  U
  V
  W
  X
  Y
  Z
  U1
  B1
  C1
  D1
  E1
  F1
  V1
  W1
  X1
  Y1
  K1
  Z1
  M1
  A2
  B2
  C2
  Q1
  D2
  S1)
        (let ((a!1 (and (not (<= P1 W))
                (not (<= O1 W))
                (not (= P1 0))
                (= N1 O1)
                (= I1 R1)
                (= H1 P1)
                (= G1 J1)
                (= 0 R1)
                (not (= 0 O1))
                (= 0 J1)
                (= 0 (select U1 O1))
                (= 0 (select (store U1 O1 1) P1))
                (= A1 (store (store U1 O1 1) P1 1))
                (= J (store (store T1 O1 4) P1 4)))))
  (or S1 a!1))
      )
      (ULTIMATE.start_L433
  A
  B
  C
  D
  E
  F
  G
  H
  I
  J
  K
  L
  M
  N
  O
  P
  Q
  R
  S
  T
  U
  V
  W
  X
  Y
  Z
  A1
  B1
  C1
  D1
  E1
  F1
  G1
  H1
  I1
  J1
  K1
  L1
  M1
  N1
  O1
  P1
  Q1
  R1
  S1)
    )
  )
)
(assert
  (forall ( (A Int) (B Int) (C Int) (D Int) (E Int) (F Int) (G Int) (H Int) (I Int) (J (Array Int Int)) (K (Array Int Int)) (L Int) (M Int) (N Int) (O Int) (P Int) (Q Int) (R Int) (S Int) (T Int) (U Int) (V Int) (W Int) (X Int) (Y Int) (Z Int) (A1 (Array Int Int)) (B1 (Array Int Int)) (C1 Int) (D1 Int) (E1 Int) (F1 Int) (G1 Int) (H1 Int) (I1 Int) (J1 Int) (K1 Int) (L1 Int) (M1 Int) (N1 Int) (O1 Int) (P1 Int) (Q1 Int) (R1 Int) (S1 Bool) (T1 Int) (U1 Int) ) 
    (=>
      (and
        (ULTIMATE.start_L433
  A
  B
  C
  D
  E
  F
  G
  H
  I
  J
  K
  L
  M
  N
  O
  P
  Q
  R
  S
  T
  U
  V
  W
  X
  Y
  Z
  A1
  B1
  C1
  D1
  E1
  F1
  G1
  H1
  I1
  J1
  T1
  L1
  M1
  N1
  O1
  P1
  U1
  R1
  S1)
        (let ((a!1 (ite (or (not (= H1 N1)) (not (= G1 I1))) 1 0)))
(let ((a!2 (and (or (not (= H1 0)) (not (= I1 0)))
                (or (not (= N1 0)) (not (= G1 0)))
                (= Q1 a!1)
                (= K1 Q1))))
  (or S1 a!2)))
      )
      (ULTIMATE.start_L4
  A
  B
  C
  D
  E
  F
  G
  H
  I
  J
  K
  L
  M
  N
  O
  P
  Q
  R
  S
  T
  U
  V
  W
  X
  Y
  Z
  A1
  B1
  C1
  D1
  E1
  F1
  G1
  H1
  I1
  J1
  K1
  L1
  M1
  N1
  O1
  P1
  Q1
  R1
  S1)
    )
  )
)
(assert
  (forall ( (A Int) (B Int) (C Int) (D Int) (E Int) (F Int) (G Int) (H Int) (I Int) (J (Array Int Int)) (K (Array Int Int)) (L Int) (M Int) (N Int) (O Int) (P Int) (Q Int) (R Int) (S Int) (T Int) (U Int) (V Int) (W Int) (X Int) (Y Int) (Z Int) (A1 (Array Int Int)) (B1 (Array Int Int)) (C1 Int) (D1 Int) (E1 Int) (F1 Int) (G1 Int) (H1 Int) (I1 Int) (J1 Int) (K1 Int) (L1 Int) (M1 Int) (N1 Int) (O1 Int) (P1 Int) (Q1 Int) (R1 Int) (S1 Bool) ) 
    (=>
      (and
        (ULTIMATE.start_L433
  A
  B
  C
  D
  E
  F
  G
  H
  I
  J
  K
  L
  M
  N
  O
  P
  Q
  R
  S
  T
  U
  V
  W
  X
  Y
  Z
  A1
  B1
  C1
  D1
  E1
  F1
  G1
  H1
  I1
  J1
  K1
  L1
  M1
  N1
  O1
  P1
  Q1
  R1
  S1)
        (or S1 (and (= N1 0) (= G1 0)) (and (= I1 0) (= H1 0)))
      )
      (ULTIMATE.start_L433-1
  A
  B
  C
  D
  E
  F
  G
  H
  I
  J
  K
  L
  M
  N
  O
  P
  Q
  R
  S
  T
  U
  V
  W
  X
  Y
  Z
  A1
  B1
  C1
  D1
  E1
  F1
  G1
  H1
  I1
  J1
  K1
  L1
  M1
  N1
  O1
  P1
  Q1
  R1
  S1)
    )
  )
)
(assert
  (forall ( (A Int) (B Int) (C Int) (D Int) (E Int) (F Int) (G Int) (H Int) (I Int) (J (Array Int Int)) (K (Array Int Int)) (L Int) (M Int) (N Int) (O Int) (P Int) (Q Int) (R Int) (S Int) (T Int) (U Int) (V Int) (W Int) (X Int) (Y Int) (Z Int) (A1 (Array Int Int)) (B1 (Array Int Int)) (C1 Int) (D1 Int) (E1 Int) (F1 Int) (G1 Int) (H1 Int) (I1 Int) (J1 Int) (K1 Int) (L1 Int) (M1 Int) (N1 Int) (O1 Int) (P1 Int) (Q1 Int) (R1 Int) (S1 Bool) ) 
    (=>
      (and
        (ULTIMATE.start_L4
  A
  B
  C
  D
  E
  F
  G
  H
  I
  J
  K
  L
  M
  N
  O
  P
  Q
  R
  S
  T
  U
  V
  W
  X
  Y
  Z
  A1
  B1
  C1
  D1
  E1
  F1
  G1
  H1
  I1
  J1
  K1
  L1
  M1
  N1
  O1
  P1
  Q1
  R1
  S1)
        (or S1 (= 0 K1))
      )
      (ULTIMATE.start_L5
  A
  B
  C
  D
  E
  F
  G
  H
  I
  J
  K
  L
  M
  N
  O
  P
  Q
  R
  S
  T
  U
  V
  W
  X
  Y
  Z
  A1
  B1
  C1
  D1
  E1
  F1
  G1
  H1
  I1
  J1
  K1
  L1
  M1
  N1
  O1
  P1
  Q1
  R1
  S1)
    )
  )
)
(assert
  (forall ( (A Int) (B Int) (C Int) (D Int) (E Int) (F Int) (G Int) (H Int) (I Int) (J (Array Int Int)) (K (Array Int Int)) (L Int) (M Int) (N Int) (O Int) (P Int) (Q Int) (R Int) (S Int) (T Int) (U Int) (V Int) (W Int) (X Int) (Y Int) (Z Int) (A1 (Array Int Int)) (B1 (Array Int Int)) (C1 Int) (D1 Int) (E1 Int) (F1 Int) (G1 Int) (H1 Int) (I1 Int) (J1 Int) (K1 Int) (L1 Int) (M1 Int) (N1 Int) (O1 Int) (P1 Int) (Q1 Int) (R1 Int) (S1 Bool) ) 
    (=>
      (and
        (ULTIMATE.start_L4
  A
  B
  C
  D
  E
  F
  G
  H
  I
  J
  K
  L
  M
  N
  O
  P
  Q
  R
  S
  T
  U
  V
  W
  X
  Y
  Z
  A1
  B1
  C1
  D1
  E1
  F1
  G1
  H1
  I1
  J1
  K1
  L1
  M1
  N1
  O1
  P1
  Q1
  R1
  S1)
        (or S1 (not (= 0 K1)))
      )
      (ULTIMATE.start_L433-1
  A
  B
  C
  D
  E
  F
  G
  H
  I
  J
  K
  L
  M
  N
  O
  P
  Q
  R
  S
  T
  U
  V
  W
  X
  Y
  Z
  A1
  B1
  C1
  D1
  E1
  F1
  G1
  H1
  I1
  J1
  K1
  L1
  M1
  N1
  O1
  P1
  Q1
  R1
  S1)
    )
  )
)
(assert
  (forall ( (A Int) (B Int) (C Int) (D Int) (E Int) (F Int) (G Int) (H Int) (I Int) (J (Array Int Int)) (K (Array Int Int)) (L Int) (M Int) (N Int) (O Int) (P Int) (Q Int) (R Int) (S Int) (T Int) (U Int) (V Int) (W Int) (X Int) (Y Int) (Z Int) (A1 (Array Int Int)) (B1 (Array Int Int)) (C1 Int) (D1 Int) (E1 Int) (F1 Int) (G1 Int) (H1 Int) (I1 Int) (J1 Int) (K1 Int) (L1 Int) (M1 Int) (N1 Int) (O1 Int) (P1 Int) (Q1 Int) (R1 Int) (S1 Bool) (T1 Int) ) 
    (=>
      (and
        (ULTIMATE.start_L433-1
  A
  B
  C
  D
  E
  F
  G
  H
  I
  J
  K
  L
  M
  N
  O
  P
  Q
  R
  S
  T
  U
  V
  W
  X
  Y
  Z
  A1
  B1
  C1
  D1
  E1
  F1
  G1
  H1
  I1
  J1
  K1
  T1
  M1
  N1
  O1
  P1
  Q1
  R1
  S1)
        (or S1 (= L1 0))
      )
      (ULTIMATE.start_L436
  A
  B
  C
  D
  E
  F
  G
  H
  I
  J
  K
  L
  M
  N
  O
  P
  Q
  R
  S
  T
  U
  V
  W
  X
  Y
  Z
  A1
  B1
  C1
  D1
  E1
  F1
  G1
  H1
  I1
  J1
  K1
  L1
  M1
  N1
  O1
  P1
  Q1
  R1
  S1)
    )
  )
)
(assert
  (forall ( (A Int) (B Int) (C Int) (D Int) (E Int) (F Int) (G Int) (H Int) (I Int) (J (Array Int Int)) (K (Array Int Int)) (L Int) (M Int) (N Int) (O Int) (P Int) (Q Int) (R Int) (S Int) (T Int) (U Int) (V Int) (W Int) (X Int) (Y Int) (Z Int) (A1 (Array Int Int)) (B1 (Array Int Int)) (C1 Int) (D1 Int) (E1 Int) (F1 Int) (G1 Int) (H1 Int) (I1 Int) (J1 Int) (K1 Int) (L1 Int) (M1 Int) (N1 Int) (O1 Int) (P1 Int) (Q1 Int) (R1 Int) (S1 Bool) (T1 Bool) ) 
    (=>
      (and
        (ULTIMATE.start_L5
  A
  B
  C
  D
  E
  F
  G
  H
  I
  J
  K
  L
  M
  N
  O
  P
  Q
  R
  S
  T
  U
  V
  W
  X
  Y
  Z
  A1
  B1
  C1
  D1
  E1
  F1
  G1
  H1
  I1
  J1
  K1
  L1
  M1
  N1
  O1
  P1
  Q1
  R1
  T1)
        (= S1 true)
      )
      (ULTIMATE.start_ULTIMATE.startEXIT
  A
  B
  C
  D
  E
  F
  G
  H
  I
  J
  K
  L
  M
  N
  O
  P
  Q
  R
  S
  T
  U
  V
  W
  X
  Y
  Z
  A1
  B1
  C1
  D1
  E1
  F1
  G1
  H1
  I1
  J1
  K1
  L1
  M1
  N1
  O1
  P1
  Q1
  R1
  S1)
    )
  )
)
(assert
  (forall ( (A Int) (B Int) (C Int) (D Int) (E Int) (F Int) (G Int) (H Int) (I Int) (J (Array Int Int)) (K (Array Int Int)) (L Int) (M Int) (N Int) (O Int) (P Int) (Q Int) (R Int) (S Int) (T Int) (U Int) (V Int) (W Int) (X Int) (Y Int) (Z Int) (A1 (Array Int Int)) (B1 (Array Int Int)) (C1 Int) (D1 Int) (E1 Int) (F1 Int) (G1 Int) (H1 Int) (I1 Int) (J1 Int) (K1 Int) (L1 Int) (M1 Int) (N1 Int) (O1 Int) (P1 Int) (Q1 Int) (R1 Int) (S1 Bool) ) 
    (=>
      (and
        (ULTIMATE.start_L5
  A
  B
  C
  D
  E
  F
  G
  H
  I
  J
  K
  L
  M
  N
  O
  P
  Q
  R
  S
  T
  U
  V
  W
  X
  Y
  Z
  A1
  B1
  C1
  D1
  E1
  F1
  G1
  H1
  I1
  J1
  K1
  L1
  M1
  N1
  O1
  P1
  Q1
  R1
  S1)
        (= S1 true)
      )
      (ULTIMATE.start_L433-1
  A
  B
  C
  D
  E
  F
  G
  H
  I
  J
  K
  L
  M
  N
  O
  P
  Q
  R
  S
  T
  U
  V
  W
  X
  Y
  Z
  A1
  B1
  C1
  D1
  E1
  F1
  G1
  H1
  I1
  J1
  K1
  L1
  M1
  N1
  O1
  P1
  Q1
  R1
  S1)
    )
  )
)
(assert
  (forall ( (A Int) (B Int) (C Int) (D Int) (E Int) (F Int) (G Int) (H Int) (I Int) (J (Array Int Int)) (K (Array Int Int)) (L Int) (M Int) (N Int) (O Int) (P Int) (Q Int) (R Int) (S Int) (T Int) (U Int) (V Int) (W Int) (X Int) (Y Int) (Z Int) (A1 (Array Int Int)) (B1 (Array Int Int)) (C1 Int) (D1 Int) (E1 Int) (F1 Int) (G1 Int) (H1 Int) (I1 Int) (J1 Int) (K1 Int) (L1 Int) (M1 Int) (N1 Int) (O1 Int) (P1 Int) (Q1 Int) (R1 Int) (S1 Bool) (T1 Int) ) 
    (=>
      (and
        (ULTIMATE.start_L436
  A
  B
  C
  D
  E
  F
  G
  H
  I
  J
  K
  L
  M
  N
  O
  P
  Q
  R
  S
  T
  U
  V
  W
  X
  Y
  Z
  A1
  B1
  C1
  D1
  E1
  F1
  G1
  H1
  I1
  J1
  K1
  L1
  T1
  N1
  O1
  P1
  Q1
  R1
  S1)
        (or S1 (= M1 L1))
      )
      (ULTIMATE.start_ULTIMATE.startFINAL
  A
  B
  C
  D
  E
  F
  G
  H
  I
  J
  K
  L
  M
  N
  O
  P
  Q
  R
  S
  T
  U
  V
  W
  X
  Y
  Z
  A1
  B1
  C1
  D1
  E1
  F1
  G1
  H1
  I1
  J1
  K1
  L1
  M1
  N1
  O1
  P1
  Q1
  R1
  S1)
    )
  )
)
(assert
  (forall ( (A Int) (B Int) (C Int) (D Int) (E Int) (F Int) (G Int) (H Int) (I Int) (J (Array Int Int)) (K (Array Int Int)) (L Int) (M Int) (N Int) (O Int) (P Int) (Q Int) (R Int) (S Int) (T Int) (U Int) (V Int) (W Int) (X Int) (Y Int) (Z Int) (A1 (Array Int Int)) (B1 (Array Int Int)) (C1 Int) (D1 Int) (E1 Int) (F1 Int) (G1 Int) (H1 Int) (I1 Int) (J1 Int) (K1 Int) (L1 Int) (M1 Int) (N1 Int) (O1 Int) (P1 Int) (Q1 Int) (R1 Int) (S1 Bool) ) 
    (=>
      (and
        (ULTIMATE.start_ULTIMATE.startFINAL
  A
  B
  C
  D
  E
  F
  G
  H
  I
  J
  K
  L
  M
  N
  O
  P
  Q
  R
  S
  T
  U
  V
  W
  X
  Y
  Z
  A1
  B1
  C1
  D1
  E1
  F1
  G1
  H1
  I1
  J1
  K1
  L1
  M1
  N1
  O1
  P1
  Q1
  R1
  S1)
        true
      )
      (ULTIMATE.start_ULTIMATE.startEXIT
  A
  B
  C
  D
  E
  F
  G
  H
  I
  J
  K
  L
  M
  N
  O
  P
  Q
  R
  S
  T
  U
  V
  W
  X
  Y
  Z
  A1
  B1
  C1
  D1
  E1
  F1
  G1
  H1
  I1
  J1
  K1
  L1
  M1
  N1
  O1
  P1
  Q1
  R1
  S1)
    )
  )
)
(assert
  (forall ( (A Int) (B Int) (C Int) (D Int) (E Int) (F Int) (G Int) (H Int) (I Int) (J (Array Int Int)) (K (Array Int Int)) (L Int) (M Int) (N Int) (O Int) (P Int) (Q Int) (R Int) (S Int) (T Int) (U Int) (V Int) (W Int) (X Int) (Y Int) (Z Int) (A1 (Array Int Int)) (B1 (Array Int Int)) (C1 Int) (D1 Int) (E1 Int) (F1 Int) (G1 Int) (H1 Int) (I1 Int) (J1 Int) (K1 Int) (L1 Int) (M1 Int) (N1 Int) (O1 Int) (P1 Int) (Q1 Int) (R1 Int) (S1 Bool) ) 
    (=>
      (and
        (and (= A1 B1) (= T S) (= Z Y) (= D E) (not S1) (= K J))
      )
      (ULTIMATE.start_ULTIMATE.startENTRY
  A
  B
  C
  D
  E
  F
  G
  H
  I
  J
  K
  L
  M
  N
  O
  P
  Q
  R
  S
  T
  U
  V
  W
  X
  Y
  Z
  A1
  B1
  C1
  D1
  E1
  F1
  G1
  H1
  I1
  J1
  K1
  L1
  M1
  N1
  O1
  P1
  Q1
  R1
  S1)
    )
  )
)
(assert
  (forall ( (A Int) (B Int) (C Int) (D Int) (E Int) (F Int) (G Int) (H Int) (I Int) (J (Array Int Int)) (K (Array Int Int)) (L Int) (M Int) (N Int) (O Int) (P Int) (Q Int) (R Int) (S Int) (T Int) (U Int) (V Int) (W Int) (X Int) (Y Int) (Z Int) (A1 (Array Int Int)) (B1 (Array Int Int)) (C1 Int) (D1 Int) (E1 Int) (F1 Int) (G1 Int) (H1 Int) (I1 Int) (J1 Int) (K1 Int) (L1 Int) (M1 Int) (N1 Int) (O1 Int) (P1 Int) (Q1 Int) (R1 Int) (S1 Bool) ) 
    (=>
      (and
        (ULTIMATE.start_ULTIMATE.startEXIT
  A
  B
  C
  D
  E
  F
  G
  H
  I
  J
  K
  L
  M
  N
  O
  P
  Q
  R
  S
  T
  U
  V
  W
  X
  Y
  Z
  A1
  B1
  C1
  D1
  E1
  F1
  G1
  H1
  I1
  J1
  K1
  L1
  M1
  N1
  O1
  P1
  Q1
  R1
  S1)
        (= S1 true)
      )
      false
    )
  )
)

(check-sat)
(exit)
